\ENCODING=ISO-8859-1
\Problem name: 

Minimize
 obj1:
Subject To
 c1:   10000 node_1_0 + contract_1_0 <= 10000
 c2:   10000 node_1_0 + contract_1_0 >= 0.0001
 c3:   - contract_1_0 + 10000 node_2_0 <= 10000
 c4:   - contract_1_0 + 10000 node_2_0 >= 0.0001
 c5:   node_0_0 - node_1_0 <= 0
 c6:   node_0_0 - node_2_0 <= 0
 c7:   node_0_0 - node_1_0 - node_2_0 >= -1
 c8:   node_0_0  = 1
 c9:   10000 node_4_0 + contract_2_0 <= 10000
 c10:  10000 node_4_0 + contract_2_0 >= 0.0001
 c11:  - contract_2_0 + 10000 node_5_0 <= 10000
 c12:  - contract_2_0 + 10000 node_5_0 >= 0.0001
 c13:  node_3_0 - node_4_0 <= 0
 c14:  node_3_0 - node_5_0 <= 0
 c15:  node_3_0 - node_4_0 - node_5_0 >= -1
 c16:  node_3_0  = 1
 c17:  - contract_1_0 + 10000 node_7_0 <= 9755
 c18:  - contract_1_0 + 10000 node_7_0 >= -244.9999
 c19:  10000 node_7_1 - contract_1_1 <= 9755
 c20:  10000 node_7_1 - contract_1_1 >= -244.9999
 c21:  10000 node_7_2 - contract_1_2 <= 9755
 c22:  10000 node_7_2 - contract_1_2 >= -244.9999
 c23:  10000 node_7_3 - contract_1_3 <= 9755
 c24:  10000 node_7_3 - contract_1_3 >= -244.9999
 c25:  10000 node_7_4 - contract_1_4 <= 9755
 c26:  10000 node_7_4 - contract_1_4 >= -244.9999
 c27:  10000 node_7_5 - contract_1_5 <= 9755
 c28:  10000 node_7_5 - contract_1_5 >= -244.9999
 c29:  10000 node_7_6 - contract_1_6 <= 9755
 c30:  10000 node_7_6 - contract_1_6 >= -244.9999
 c31:  10000 node_7_7 - contract_1_7 <= 9755
 c32:  10000 node_7_7 - contract_1_7 >= -244.9999
 c33:  10000 node_7_8 - contract_1_8 <= 9755
 c34:  10000 node_7_8 - contract_1_8 >= -244.9999
 c35:  10000 node_7_9 - contract_1_9 <= 9755
 c36:  10000 node_7_9 - contract_1_9 >= -244.9999
 c37:  10000 node_7_10 - contract_1_10 <= 9755
 c38:  10000 node_7_10 - contract_1_10 >= -244.9999
 c39:  10000 node_7_11 - contract_1_11 <= 9755
 c40:  10000 node_7_11 - contract_1_11 >= -244.9999
 c41:  10000 node_7_12 - contract_1_12 <= 9755
 c42:  10000 node_7_12 - contract_1_12 >= -244.9999
 c43:  10000 node_7_13 - contract_1_13 <= 9755
 c44:  10000 node_7_13 - contract_1_13 >= -244.9999
 c45:  10000 node_7_14 - contract_1_14 <= 9755
 c46:  10000 node_7_14 - contract_1_14 >= -244.9999
 c47:  10000 node_7_15 - contract_1_15 <= 9755
 c48:  10000 node_7_15 - contract_1_15 >= -244.9999
 c49:  10000 node_7_16 - contract_1_16 <= 9755
 c50:  10000 node_7_16 - contract_1_16 >= -244.9999
 c51:  10000 node_7_17 - contract_1_17 <= 9755
 c52:  10000 node_7_17 - contract_1_17 >= -244.9999
 c53:  10000 node_7_18 - contract_1_18 <= 9755
 c54:  10000 node_7_18 - contract_1_18 >= -244.9999
 c55:  10000 node_7_19 - contract_1_19 <= 9755
 c56:  10000 node_7_19 - contract_1_19 >= -244.9999
 c57:  10000 node_7_20 - contract_1_20 <= 9755
 c58:  10000 node_7_20 - contract_1_20 >= -244.9999
 c59:  10000 node_7_21 - contract_1_21 <= 9755
 c60:  10000 node_7_21 - contract_1_21 >= -244.9999
 c61:  10000 node_7_22 - contract_1_22 <= 9755
 c62:  10000 node_7_22 - contract_1_22 >= -244.9999
 c63:  10000 node_7_23 - contract_1_23 <= 9755
 c64:  10000 node_7_23 - contract_1_23 >= -244.9999
 c65:  10000 node_7_24 - contract_1_24 <= 9755
 c66:  10000 node_7_24 - contract_1_24 >= -244.9999
 c67:  10000 node_7_25 - contract_1_25 <= 9755
 c68:  10000 node_7_25 - contract_1_25 >= -244.9999
 c69:  10000 node_7_26 - contract_1_26 <= 9755
 c70:  10000 node_7_26 - contract_1_26 >= -244.9999
 c71:  10000 node_7_27 - contract_1_27 <= 9755
 c72:  10000 node_7_27 - contract_1_27 >= -244.9999
 c73:  10000 node_7_28 - contract_1_28 <= 9755
 c74:  10000 node_7_28 - contract_1_28 >= -244.9999
 c75:  10000 node_7_29 - contract_1_29 <= 9755
 c76:  10000 node_7_29 - contract_1_29 >= -244.9999
 c77:  10000 node_7_30 - contract_1_30 <= 9755
 c78:  10000 node_7_30 - contract_1_30 >= -244.9999
 c79:  - node_6_0 + node_7_0 <= 0
 c80:  - node_6_0 + node_7_1 <= 0
 c81:  - node_6_0 + node_7_2 <= 0
 c82:  - node_6_0 + node_7_3 <= 0
 c83:  - node_6_0 + node_7_4 <= 0
 c84:  - node_6_0 + node_7_5 <= 0
 c85:  - node_6_0 + node_7_6 <= 0
 c86:  - node_6_0 + node_7_7 <= 0
 c87:  - node_6_0 + node_7_8 <= 0
 c88:  - node_6_0 + node_7_9 <= 0
 c89:  - node_6_0 + node_7_10 <= 0
 c90:  - node_6_0 + node_7_11 <= 0
 c91:  - node_6_0 + node_7_12 <= 0
 c92:  - node_6_0 + node_7_13 <= 0
 c93:  - node_6_0 + node_7_14 <= 0
 c94:  - node_6_0 + node_7_15 <= 0
 c95:  - node_6_0 + node_7_16 <= 0
 c96:  - node_6_0 + node_7_17 <= 0
 c97:  - node_6_0 + node_7_18 <= 0
 c98:  - node_6_0 + node_7_19 <= 0
 c99:  - node_6_0 + node_7_20 <= 0
 c100: - node_6_0 + node_7_21 <= 0
 c101: - node_6_0 + node_7_22 <= 0
 c102: - node_6_0 + node_7_23 <= 0
 c103: - node_6_0 + node_7_24 <= 0
 c104: - node_6_0 + node_7_25 <= 0
 c105: - node_6_0 + node_7_26 <= 0
 c106: - node_6_0 + node_7_27 <= 0
 c107: - node_6_0 + node_7_28 <= 0
 c108: - node_6_0 + node_7_29 <= 0
 c109: - node_6_0 + node_7_30 <= 0
 c110: node_6_0 - node_7_0 - node_7_1 - node_7_2 - node_7_3 - node_7_4
       - node_7_5 - node_7_6 - node_7_7 - node_7_8 - node_7_9 - node_7_10
       - node_7_11 - node_7_12 - node_7_13 - node_7_14 - node_7_15 - node_7_16
       - node_7_17 - node_7_18 - node_7_19 - node_7_20 - node_7_21 - node_7_22
       - node_7_23 - node_7_24 - node_7_25 - node_7_26 - node_7_27 - node_7_28
       - node_7_29 - node_7_30 <= 0
 c111: node_6_0  = 1
 c112: contract_1_0 + contract_2_0 - contract_1_1  = 0
 c113: contract_1_1 - contract_1_2 + contract_2_1  = 0
 c114: contract_1_2 - contract_1_3 + contract_2_2  = 0
 c115: contract_1_3 - contract_1_4 + contract_2_3  = 0
 c116: contract_1_4 - contract_1_5 + contract_2_4  = 0
 c117: contract_1_5 - contract_1_6 + contract_2_5  = 0
 c118: contract_1_6 - contract_1_7 + contract_2_6  = 0
 c119: contract_1_7 - contract_1_8 + contract_2_7  = 0
 c120: contract_1_8 - contract_1_9 + contract_2_8  = 0
 c121: contract_1_9 - contract_1_10 + contract_2_9  = 0
 c122: contract_1_10 - contract_1_11 + contract_2_10  = 0
 c123: contract_1_11 - contract_1_12 + contract_2_11  = 0
 c124: contract_1_12 - contract_1_13 + contract_2_12  = 0
 c125: contract_1_13 - contract_1_14 + contract_2_13  = 0
 c126: contract_1_14 - contract_1_15 + contract_2_14  = 0
 c127: contract_1_15 - contract_1_16 + contract_2_15  = 0
 c128: contract_1_16 - contract_1_17 + contract_2_16  = 0
 c129: contract_1_17 - contract_1_18 + contract_2_17  = 0
 c130: contract_1_18 - contract_1_19 + contract_2_18  = 0
 c131: contract_1_19 - contract_1_20 + contract_2_19  = 0
 c132: contract_1_20 - contract_1_21 + contract_2_20  = 0
 c133: contract_1_21 - contract_1_22 + contract_2_21  = 0
 c134: contract_1_22 - contract_1_23 + contract_2_22  = 0
 c135: contract_1_23 - contract_1_24 + contract_2_23  = 0
 c136: contract_1_24 - contract_1_25 + contract_2_24  = 0
 c137: contract_1_25 - contract_1_26 + contract_2_25  = 0
 c138: contract_1_26 - contract_1_27 + contract_2_26  = 0
 c139: contract_1_27 - contract_1_28 + contract_2_27  = 0
 c140: contract_1_28 - contract_1_29 + contract_2_28  = 0
 c141: contract_1_29 - contract_1_30 + contract_2_29  = 0
 c142: contract_2_0 - contract_2_1 + contract_3_0  = 0
 c143: contract_2_1 - contract_2_2 + contract_3_1  = 0
 c144: contract_2_2 - contract_2_3 + contract_3_2  = 0
 c145: contract_2_3 - contract_2_4 + contract_3_3  = 0
 c146: contract_2_4 - contract_2_5 + contract_3_4  = 0
 c147: contract_2_5 - contract_2_6 + contract_3_5  = 0
 c148: contract_2_6 - contract_2_7 + contract_3_6  = 0
 c149: contract_2_7 - contract_2_8 + contract_3_7  = 0
 c150: contract_2_8 - contract_2_9 + contract_3_8  = 0
 c151: contract_2_9 - contract_2_10 + contract_3_9  = 0
 c152: contract_2_10 - contract_2_11 + contract_3_10  = 0
 c153: contract_2_11 - contract_2_12 + contract_3_11  = 0
 c154: contract_2_12 - contract_2_13 + contract_3_12  = 0
 c155: contract_2_13 - contract_2_14 + contract_3_13  = 0
 c156: contract_2_14 - contract_2_15 + contract_3_14  = 0
 c157: contract_2_15 - contract_2_16 + contract_3_15  = 0
 c158: contract_2_16 - contract_2_17 + contract_3_16  = 0
 c159: contract_2_17 - contract_2_18 + contract_3_17  = 0
 c160: contract_2_18 - contract_2_19 + contract_3_18  = 0
 c161: contract_2_19 - contract_2_20 + contract_3_19  = 0
 c162: contract_2_20 - contract_2_21 + contract_3_20  = 0
 c163: contract_2_21 - contract_2_22 + contract_3_21  = 0
 c164: contract_2_22 - contract_2_23 + contract_3_22  = 0
 c165: contract_2_23 - contract_2_24 + contract_3_23  = 0
 c166: contract_2_24 - contract_2_25 + contract_3_24  = 0
 c167: contract_2_25 - contract_2_26 + contract_3_25  = 0
 c168: contract_2_26 - contract_2_27 + contract_3_26  = 0
 c169: contract_2_27 - contract_2_28 + contract_3_27  = 0
 c170: contract_2_28 - contract_2_29 + contract_3_28  = 0
 c171: contract_2_29 + contract_3_29 - contract_2_30  = 0
Bounds
 0 <= node_0_0 <= 1
 0 <= node_1_0 <= 1
-100 <= contract_1_0 <= 2000
 0 <= node_2_0 <= 1
 0 <= node_3_0 <= 1
 0 <= node_4_0 <= 1
-5 <= contract_2_0 <= 10
 0 <= node_5_0 <= 1
 0 <= node_6_0 <= 1
 0 <= node_7_0 <= 1
 0 <= node_7_1 <= 1
 0 <= node_7_2 <= 1
 0 <= node_7_3 <= 1
 0 <= node_7_4 <= 1
 0 <= node_7_5 <= 1
 0 <= node_7_6 <= 1
 0 <= node_7_7 <= 1
 0 <= node_7_8 <= 1
 0 <= node_7_9 <= 1
 0 <= node_7_10 <= 1
 0 <= node_7_11 <= 1
 0 <= node_7_12 <= 1
 0 <= node_7_13 <= 1
 0 <= node_7_14 <= 1
 0 <= node_7_15 <= 1
 0 <= node_7_16 <= 1
 0 <= node_7_17 <= 1
 0 <= node_7_18 <= 1
 0 <= node_7_19 <= 1
 0 <= node_7_20 <= 1
 0 <= node_7_21 <= 1
 0 <= node_7_22 <= 1
 0 <= node_7_23 <= 1
 0 <= node_7_24 <= 1
 0 <= node_7_25 <= 1
 0 <= node_7_26 <= 1
 0 <= node_7_27 <= 1
 0 <= node_7_28 <= 1
 0 <= node_7_29 <= 1
 0 <= node_7_30 <= 1
-100 <= contract_1_1 <= 2000
-100 <= contract_1_2 <= 2000
-100 <= contract_1_3 <= 2000
-100 <= contract_1_4 <= 2000
-100 <= contract_1_5 <= 2000
-100 <= contract_1_6 <= 2000
-100 <= contract_1_7 <= 2000
-100 <= contract_1_8 <= 2000
-100 <= contract_1_9 <= 2000
-100 <= contract_1_10 <= 2000
-100 <= contract_1_11 <= 2000
-100 <= contract_1_12 <= 2000
-100 <= contract_1_13 <= 2000
-100 <= contract_1_14 <= 2000
-100 <= contract_1_15 <= 2000
-100 <= contract_1_16 <= 2000
-100 <= contract_1_17 <= 2000
-100 <= contract_1_18 <= 2000
-100 <= contract_1_19 <= 2000
-100 <= contract_1_20 <= 2000
-100 <= contract_1_21 <= 2000
-100 <= contract_1_22 <= 2000
-100 <= contract_1_23 <= 2000
-100 <= contract_1_24 <= 2000
-100 <= contract_1_25 <= 2000
-100 <= contract_1_26 <= 2000
-100 <= contract_1_27 <= 2000
-100 <= contract_1_28 <= 2000
-100 <= contract_1_29 <= 2000
-100 <= contract_1_30 <= 2000
-5 <= contract_2_1 <= 10
-5 <= contract_2_2 <= 10
-5 <= contract_2_3 <= 10
-5 <= contract_2_4 <= 10
-5 <= contract_2_5 <= 10
-5 <= contract_2_6 <= 10
-5 <= contract_2_7 <= 10
-5 <= contract_2_8 <= 10
-5 <= contract_2_9 <= 10
-5 <= contract_2_10 <= 10
-5 <= contract_2_11 <= 10
-5 <= contract_2_12 <= 10
-5 <= contract_2_13 <= 10
-5 <= contract_2_14 <= 10
-5 <= contract_2_15 <= 10
-5 <= contract_2_16 <= 10
-5 <= contract_2_17 <= 10
-5 <= contract_2_18 <= 10
-5 <= contract_2_19 <= 10
-5 <= contract_2_20 <= 10
-5 <= contract_2_21 <= 10
-5 <= contract_2_22 <= 10
-5 <= contract_2_23 <= 10
-5 <= contract_2_24 <= 10
-5 <= contract_2_25 <= 10
-5 <= contract_2_26 <= 10
-5 <= contract_2_27 <= 10
-5 <= contract_2_28 <= 10
-5 <= contract_2_29 <= 10
-1 <= contract_3_0 <= 1
-1 <= contract_3_1 <= 1
-1 <= contract_3_2 <= 1
-1 <= contract_3_3 <= 1
-1 <= contract_3_4 <= 1
-1 <= contract_3_5 <= 1
-1 <= contract_3_6 <= 1
-1 <= contract_3_7 <= 1
-1 <= contract_3_8 <= 1
-1 <= contract_3_9 <= 1
-1 <= contract_3_10 <= 1
-1 <= contract_3_11 <= 1
-1 <= contract_3_12 <= 1
-1 <= contract_3_13 <= 1
-1 <= contract_3_14 <= 1
-1 <= contract_3_15 <= 1
-1 <= contract_3_16 <= 1
-1 <= contract_3_17 <= 1
-1 <= contract_3_18 <= 1
-1 <= contract_3_19 <= 1
-1 <= contract_3_20 <= 1
-1 <= contract_3_21 <= 1
-1 <= contract_3_22 <= 1
-1 <= contract_3_23 <= 1
-1 <= contract_3_24 <= 1
-1 <= contract_3_25 <= 1
-1 <= contract_3_26 <= 1
-1 <= contract_3_27 <= 1
-1 <= contract_3_28 <= 1
-1 <= contract_3_29 <= 1
-5 <= contract_2_30 <= 10
Binaries
 node_0_0  node_1_0  node_2_0  node_3_0  node_4_0  node_5_0  node_6_0 
 node_7_0  node_7_1  node_7_2  node_7_3  node_7_4  node_7_5  node_7_6 
 node_7_7  node_7_8  node_7_9  node_7_10  node_7_11  node_7_12  node_7_13 
 node_7_14  node_7_15  node_7_16  node_7_17  node_7_18  node_7_19  node_7_20 
 node_7_21  node_7_22  node_7_23  node_7_24  node_7_25  node_7_26  node_7_27 
 node_7_28  node_7_29  node_7_30 
End
